SYSTEM = Pb_2Dslab_20L

ISTART = 0
ICHARG = 2
ISMEAR = 0
SIGMA = 0.1
ENCUT = 400
GGA=PS

IBRION = 2
ISIF = 2
NSW = 250

EDIFF = 1E-06

NCORE = 6
