SYSTEM = Pb_2Dslab_20L    

ICHARG = 11

ISMEAR = 0
SIGMA = 0.1
ENCUT = 400
GGA=PE

EDIFF = 1E-06
LORBIT = 11

NCORE = 6
NBANDS = 250
