Pb_2Dslab_20L                           
   1.0000000000000000     
     2.4654999731081193   -2.4654999731081202    0.0000000000000010
     0.0000000000000000    2.4654999731081197   -2.4654999731081197
    42.7766720504592612   42.7766720504592612   42.7766720504592612
   Pb
    20
Direct
  0.6666669454704888  0.3333338909409420  0.0010011347097321
  0.0000002715323006  0.0000005430645729  0.0376543017161300
  0.3333336194086627  0.6666672170027539  0.0766211259878832
  0.6666669454704817  0.3333338909409420  0.1151577687192971
  0.0000002715323006  0.0000005430645658  0.1537006865464265
  0.3333336194086698  0.6666672170027539  0.1921579244112444
  0.6666669454704817  0.3333338909409349  0.2305421084582652
  0.0000002715322935  0.0000005430645729  0.2690247024902733
  0.3333336194086627  0.6666672170027539  0.3073251547517909
  0.6666669454704817  0.3333338909409420  0.3458907330314211
  0.0000002715322935  0.0000005430645658  0.3841722936067563
  0.3333336194086485  0.6666672170027468  0.4227378718863865
  0.6666669454704675  0.3333338909409278  0.4610383241478969
  0.0000002715322864  0.0000005430645587  0.4995209181799122
  0.3333336194086485  0.6666672170027397  0.5379051022269260
  0.6666669454704675  0.3333338909409278  0.5763623400917440
  0.0000002715322864  0.0000005430645587  0.6149052579188732
  0.3333336194086485  0.6666672170027397  0.6534419006502870
  0.6666669454704675  0.3333338909409278  0.6924087249220402
  0.0000002715322793  0.0000005430645587  0.7290618919284381

  0.00000000E+00  0.00000000E+00  0.00000000E+00
  0.00000000E+00  0.00000000E+00  0.00000000E+00
  0.00000000E+00  0.00000000E+00  0.00000000E+00
  0.00000000E+00  0.00000000E+00  0.00000000E+00
  0.00000000E+00  0.00000000E+00  0.00000000E+00
  0.00000000E+00  0.00000000E+00  0.00000000E+00
  0.00000000E+00  0.00000000E+00  0.00000000E+00
  0.00000000E+00  0.00000000E+00  0.00000000E+00
  0.00000000E+00  0.00000000E+00  0.00000000E+00
  0.00000000E+00  0.00000000E+00  0.00000000E+00
  0.00000000E+00  0.00000000E+00  0.00000000E+00
  0.00000000E+00  0.00000000E+00  0.00000000E+00
  0.00000000E+00  0.00000000E+00  0.00000000E+00
  0.00000000E+00  0.00000000E+00  0.00000000E+00
  0.00000000E+00  0.00000000E+00  0.00000000E+00
  0.00000000E+00  0.00000000E+00  0.00000000E+00
  0.00000000E+00  0.00000000E+00  0.00000000E+00
  0.00000000E+00  0.00000000E+00  0.00000000E+00
  0.00000000E+00  0.00000000E+00  0.00000000E+00
  0.00000000E+00  0.00000000E+00  0.00000000E+00
