Pb_2Dslab_20L                           
   1.0000000000000000     
     2.4654999731081193   -2.4654999731081202    0.0000000000000010
     0.0000000000000000    2.4654999731081197   -2.4654999731081197
    42.7766720504592612   42.7766720504592612   42.7766720504592612
   Pb
    20
Direct
  0.6666669454704888  0.3333338909409420  0.0010011347097318
  0.0000002715323006  0.0000005430645729  0.0376543017161310
  0.3333336194086627  0.6666672170027539  0.0766211259878844
  0.6666669454704817  0.3333338909409420  0.1151577687192997
  0.0000002715323006  0.0000005430645658  0.1537006865464292
  0.3333336194086698  0.6666672170027539  0.1921579244112479
  0.6666669454704817  0.3333338909409349  0.2305421084582662
  0.0000002715322935  0.0000005430645729  0.2690247024902703
  0.3333336194086627  0.6666672170027539  0.3073251547517941
  0.6666669454704817  0.3333338909409420  0.3458907330314176
  0.0000002715322935  0.0000005430645658  0.3841722936067598
  0.3333336194086485  0.6666672170027468  0.4227378718863832
  0.6666669454704675  0.3333338909409278  0.4610383241478999
  0.0000002715322864  0.0000005430645587  0.4995209181799112
  0.3333336194086485  0.6666672170027397  0.5379051022269294
  0.6666669454704675  0.3333338909409278  0.5763623400917410
  0.0000002715322864  0.0000005430645587  0.6149052579188705
  0.3333336194086485  0.6666672170027397  0.6534419006502858
  0.6666669454704675  0.3333338909409278  0.6924087249220392
  0.0000002715322793  0.0000005430645587  0.7290618919284384

  0.00000000E+00  0.00000000E+00  0.00000000E+00
  0.00000000E+00  0.00000000E+00  0.00000000E+00
  0.00000000E+00  0.00000000E+00  0.00000000E+00
  0.00000000E+00  0.00000000E+00  0.00000000E+00
  0.00000000E+00  0.00000000E+00  0.00000000E+00
  0.00000000E+00  0.00000000E+00  0.00000000E+00
  0.00000000E+00  0.00000000E+00  0.00000000E+00
  0.00000000E+00  0.00000000E+00  0.00000000E+00
  0.00000000E+00  0.00000000E+00  0.00000000E+00
  0.00000000E+00  0.00000000E+00  0.00000000E+00
  0.00000000E+00  0.00000000E+00  0.00000000E+00
  0.00000000E+00  0.00000000E+00  0.00000000E+00
  0.00000000E+00  0.00000000E+00  0.00000000E+00
  0.00000000E+00  0.00000000E+00  0.00000000E+00
  0.00000000E+00  0.00000000E+00  0.00000000E+00
  0.00000000E+00  0.00000000E+00  0.00000000E+00
  0.00000000E+00  0.00000000E+00  0.00000000E+00
  0.00000000E+00  0.00000000E+00  0.00000000E+00
  0.00000000E+00  0.00000000E+00  0.00000000E+00
  0.00000000E+00  0.00000000E+00  0.00000000E+00
