SYSTEM = Pb_2Dslab_20L

ISTART = 0
SIGMA = 0.1
ENCUT = 400
GGA=PE

EDIFF = 1E-06

NCORE = 6
NBANDS = 250
