Pb_perf_51_layers
   1.0000000000000000
     2.4654999731081202    -2.4654999731081202    0.0000000000000010
     0.0000000000000000    2.4654999731081202    -2.4654999731081202
     93.7303387171259030    93.7303387171259030    93.7303387171259030
   Pb
    51
Direct
  0.3333336194086893  0.6666672170027610  0.0006159694684682
  0.6666669454705030  0.3333338909409207  0.0181520915945941
  0.0000002715323273  0.0000005430645764  0.0356882137207195
  0.3333336194086787  0.6666672170027503  0.0532243358468456
  0.6666669454704959  0.3333338909409278  0.0707604579729706
  0.0000002715323131  0.0000005430645516  0.0882965800990967
  0.3333336194086716  0.6666672170027468  0.1058327022252220
  0.6666669454704639  0.3333338909409100  0.1233688243513480
  0.0000002715323202  0.0000005430645444  0.1409049464774731
  0.3333336194086787  0.6666672170027432  0.1584410686035990
  0.6666669454705048  0.3333338909409314  0.1759771907297250
  0.0000002715322989  0.0000005430645622  0.1935133128558559
  0.3333336194086609  0.6666672170027468  0.2110494349819820
  0.6666669454704808  0.3333338909409207  0.2285855571081080
  0.0000002715323051  0.0000005430645569  0.2461216792342330
  0.3333336194086902  0.6666672170027681  0.2636578013603580
  0.6666669454704977  0.3333338909409509  0.2811939234864830
  0.0000002715322971  0.0000005430645675  0.2987300456126091
  0.3333336194086689  0.6666672170027539  0.3162661677387351
  0.6666669454704977  0.3333338909409509  0.3338022898648611
  0.0000002715323086  0.0000005430645658  0.3513384119909870
  0.3333336194086689  0.6666672170027574  0.3688745341171130
  0.6666669454704808  0.3333338909409402  0.3864106562432390
  0.0000002715323015  0.0000005430645764  0.4039467783693650
  0.3333336194086707  0.6666672170027557  0.4214829004954910
  0.6666669454704906  0.3333338909409420  0.4390190226216160
  0.0000002715323069  0.0000005430645746  0.4565551447477431
  0.3333336194086707  0.6666672170027557  0.4740912668738680
  0.6666669454704932  0.3333338909409491  0.4916273889999930
  0.0000002715322953  0.0000005430645711  0.5091635111261190
  0.3333336194086698  0.6666672170027557  0.5266996332522450
  0.6666669454704839  0.3333338909409385  0.5442357553783710
  0.0000002715323024  0.0000005430645702  0.5617718775044971
  0.3333336194086614  0.6666672170027566  0.5793079996306230
  0.6666669454704803  0.3333338909409385  0.5968441217567491
  0.0000002715322944  0.0000005430645666  0.6143802438828750
  0.3333336194086698  0.6666672170027557  0.6319163660090010
  0.6666669454704790  0.3333338909409402  0.6494524881351271
  0.0000002715322927  0.0000005430645675  0.6669886102612520
  0.3333336194086582  0.6666672170027495  0.6845247323873791
  0.6666669454704788  0.3333338909409402  0.7020608545135050
  0.0000002715322878  0.0000005430645644  0.7195969766396311
  0.3333336194086507  0.6666672170027459  0.7371330987657571
  0.6666669454704675  0.3333338909409287  0.7546692208918822
  0.0000002715322822  0.0000005430645582  0.7722053430180090
  0.3333336194086527  0.6666672170027441  0.7897414651441341
  0.6666669454704675  0.3333338909409289  0.8072775872702610
  0.0000002715322822  0.0000005430645584  0.8248137093963861
  0.3333336194086507  0.6666672170027402  0.8423498315225121
  0.6666669454704616  0.3333338909409289  0.8598859536486381
  0.0000002715322783  0.0000005430645566  0.8774220757747641
