Pb_2Dslab_20L
   1.0000000000000000
     2.4654999731081193    -2.4654999731081202    0.0000000000000010
     0.0000000000000000    2.4654999731081197    -2.4654999731081197
     42.7766720504592610    42.7766720504592610    42.7766720504592610
   Pb
    20
Direct
  0.6666669454704888  1.3333338909409402  0.0000000000000000
  0.0000002715323033  0.0000005430645729  0.0384243698230610
  1.3333336194086618  0.6666672170027557  0.0768487396461233
  0.6666669454704843  1.3333338909409402  0.1152731094691842
  0.0000002715322971  0.0000005430645693  0.1536974792922465
  1.3333336194086716  0.6666672170027574  0.1921218491153075
  0.6666669454704812  1.3333338909409385  0.2305462189383697
  0.0000002715322958  0.0000005430645702  0.2689705887614307
  1.3333336194086627  0.6666672170027521  0.3073949585844932
  0.6666669454704786  1.3333338909409393  0.3458193284075555
  0.0000002715322900  0.0000005430645640  0.3842436982306164
  1.3333336194086511  0.6666672170027450  0.4226680680536787
  0.6666669454704701  1.3333338909409305  0.4610924378767396
  0.0000002715322860  0.0000005430645613  0.4995168076998020
  1.3333336194086511  0.6666672170027432  0.5379411775228629
  0.6666669454704685  1.3333338909409296  0.5763655473459253
  0.0000002715322831  0.0000005430645589  0.6147899171689867
  1.3333336194086511  0.6666672170027417  0.6532142869920481
  0.6666669454704652  1.3333338909409287  0.6916386568151097
  0.0000002715322807  0.0000005430645582  0.7300630266381712
